112905
1, 69, 4, 40, 52, 68, 44, 28, 59, 82, 27, 38, 51, 17, 50, 63, 75, 11, 33, 72, 81, 60, 47, 34, 57, 3, 12, 23, 55, 7, 56, 31, 49, 43, 32, 22, 5, 19, 24, 48, 18, 37, 13, 21, 71, 66, 20, 67, 76, 26, 36, 62, 14, 29, 10, 64, 73, 45, 46, 54, 9, 77, 74, 16, 35, 2, 42, 25, 15, 83, 8, 53, 65, 39, 41, 78, 61, 6, 79, 70, 80, 58, 30
